53454
34, 53, 26, 55, 28, 6, 3, 43, 40, 51, 13, 41, 32, 24, 50, 20, 7, 37, 5, 35, 38, 8, 44, 19, 49, 48, 17, 23, 21, 29, 22, 10, 16, 39, 46, 36, 15, 52, 45, 11, 25, 31, 27, 1, 33, 42, 2, 14, 9, 12, 18, 4, 30, 47, 54
